(set-logic QF_S)
(declare-fun var_0xINPUT_271632 () String)
(assert (and (= (len var_0xINPUT_271632) 0) (= (len var_0xINPUT_271632) 0) (not (= var_0xINPUT_271632 "ywUN4ZIDAC"))))
(check-sat var_0xINPUT_271632)